315
456
316
392
370
386
463
540
428
406
406
449
447
430
446
472
434
272
261
251
262
274
659
718
721
736
741
466
494
430
492
541
1167
1162
1183
1295
1115
702
728
678
794
686
750
725
921
763
864
761
774
885
792
948
5837
5909
5573
5788
6546
3136
3044
3104
2868
2768
